c Result of efficient AIG-to-CNF conversion using package CNF
p cnf 337 1191
-2 3 95 206 210 0
-2 -3 -95 206 210 0
2 -210 0
2 -3 95 0
2 -206 0
2 3 -95 0
-3 4 92 0
-3 -4 -92 0
3 -4 92 0
3 4 -92 0
-4 274 -5 0
-4 -5 34 0
-4 274 34 0
4 5 -34 0
4 -274 5 0
4 -274 -34 0
5 -306 6 0
5 306 -6 0
-5 306 6 0
-5 -306 -6 0
-6 307 7 0
6 -307 0
6 -7 0
-7 308 8 0
7 -308 0
7 -8 0
-8 309 9 0
8 -309 0
8 -9 0
-9 310 10 0
9 -310 0
9 -10 0
-10 311 11 0
10 -311 0
10 -11 0
-11 312 12 0
11 -312 0
11 -12 0
-12 313 13 0
12 -313 0
12 -13 0
-13 314 14 0
13 -314 0
13 -14 0
-14 315 15 0
14 -315 0
14 -15 0
-15 316 16 0
15 -316 0
15 -16 0
-16 317 17 0
16 -317 0
16 -17 0
-17 318 18 0
17 -318 0
17 -18 0
-18 319 19 0
18 -319 0
18 -19 0
-19 320 20 0
19 -320 0
19 -20 0
-20 321 21 0
20 -321 0
20 -21 0
-21 322 22 0
21 -322 0
21 -22 0
-22 323 23 0
22 -323 0
22 -23 0
-23 324 24 0
23 -324 0
23 -24 0
-24 325 25 0
24 -325 0
24 -25 0
-25 326 26 0
25 -326 0
25 -26 0
-26 327 27 0
26 -327 0
26 -27 0
-27 328 28 0
27 -328 0
27 -28 0
-28 329 29 0
28 -329 0
28 -29 0
-29 330 30 0
29 -330 0
29 -30 0
-30 331 31 0
30 -331 0
30 -31 0
-31 332 32 0
31 -332 0
31 -32 0
-32 333 33 0
32 -333 0
32 -33 0
-33 334 335 336 0
33 -334 0
33 -336 0
33 -335 0
-34 275 -35 0
-34 -35 36 0
-34 275 36 0
34 35 -36 0
34 -275 35 0
34 -275 -36 0
35 -307 7 0
35 307 -7 0
-35 307 7 0
-35 -307 -7 0
-36 276 -37 0
-36 -37 38 0
-36 276 38 0
36 37 -38 0
36 -276 37 0
36 -276 -38 0
37 -308 8 0
37 308 -8 0
-37 308 8 0
-37 -308 -8 0
-38 277 -39 0
-38 -39 40 0
-38 277 40 0
38 39 -40 0
38 -277 39 0
38 -277 -40 0
39 -309 9 0
39 309 -9 0
-39 309 9 0
-39 -309 -9 0
-40 278 -41 0
-40 -41 42 0
-40 278 42 0
40 41 -42 0
40 -278 41 0
40 -278 -42 0
41 -310 10 0
41 310 -10 0
-41 310 10 0
-41 -310 -10 0
-42 279 -43 0
-42 -43 44 0
-42 279 44 0
42 43 -44 0
42 -279 43 0
42 -279 -44 0
43 -311 11 0
43 311 -11 0
-43 311 11 0
-43 -311 -11 0
-44 280 -45 0
-44 -45 46 0
-44 280 46 0
44 45 -46 0
44 -280 45 0
44 -280 -46 0
45 -312 12 0
45 312 -12 0
-45 312 12 0
-45 -312 -12 0
-46 281 -47 0
-46 -47 48 0
-46 281 48 0
46 47 -48 0
46 -281 47 0
46 -281 -48 0
47 -313 13 0
47 313 -13 0
-47 313 13 0
-47 -313 -13 0
-48 282 -49 0
-48 -49 50 0
-48 282 50 0
48 49 -50 0
48 -282 49 0
48 -282 -50 0
49 -314 14 0
49 314 -14 0
-49 314 14 0
-49 -314 -14 0
-50 283 -51 0
-50 -51 52 0
-50 283 52 0
50 51 -52 0
50 -283 51 0
50 -283 -52 0
51 -315 15 0
51 315 -15 0
-51 315 15 0
-51 -315 -15 0
-52 284 -53 0
-52 -53 54 0
-52 284 54 0
52 53 -54 0
52 -284 53 0
52 -284 -54 0
53 -316 16 0
53 316 -16 0
-53 316 16 0
-53 -316 -16 0
-54 285 -55 0
-54 -55 56 0
-54 285 56 0
54 55 -56 0
54 -285 55 0
54 -285 -56 0
55 -317 17 0
55 317 -17 0
-55 317 17 0
-55 -317 -17 0
-56 286 -57 0
-56 -57 58 0
-56 286 58 0
56 57 -58 0
56 -286 57 0
56 -286 -58 0
57 -318 18 0
57 318 -18 0
-57 318 18 0
-57 -318 -18 0
-58 287 -59 0
-58 -59 60 0
-58 287 60 0
58 59 -60 0
58 -287 59 0
58 -287 -60 0
59 -319 19 0
59 319 -19 0
-59 319 19 0
-59 -319 -19 0
-60 288 -61 0
-60 -61 62 0
-60 288 62 0
60 61 -62 0
60 -288 61 0
60 -288 -62 0
61 -320 20 0
61 320 -20 0
-61 320 20 0
-61 -320 -20 0
-62 289 -63 0
-62 -63 64 0
-62 289 64 0
62 63 -64 0
62 -289 63 0
62 -289 -64 0
63 -321 21 0
63 321 -21 0
-63 321 21 0
-63 -321 -21 0
-64 290 -65 0
-64 -65 66 0
-64 290 66 0
64 65 -66 0
64 -290 65 0
64 -290 -66 0
65 -322 22 0
65 322 -22 0
-65 322 22 0
-65 -322 -22 0
-66 291 -67 0
-66 -67 68 0
-66 291 68 0
66 67 -68 0
66 -291 67 0
66 -291 -68 0
67 -323 23 0
67 323 -23 0
-67 323 23 0
-67 -323 -23 0
-68 292 -69 0
-68 -69 70 0
-68 292 70 0
68 69 -70 0
68 -292 69 0
68 -292 -70 0
69 -324 24 0
69 324 -24 0
-69 324 24 0
-69 -324 -24 0
-70 293 -71 0
-70 -71 72 0
-70 293 72 0
70 71 -72 0
70 -293 71 0
70 -293 -72 0
71 -325 25 0
71 325 -25 0
-71 325 25 0
-71 -325 -25 0
-72 294 -73 0
-72 -73 74 0
-72 294 74 0
72 73 -74 0
72 -294 73 0
72 -294 -74 0
73 -326 26 0
73 326 -26 0
-73 326 26 0
-73 -326 -26 0
-74 295 -75 0
-74 -75 76 0
-74 295 76 0
74 75 -76 0
74 -295 75 0
74 -295 -76 0
75 -327 27 0
75 327 -27 0
-75 327 27 0
-75 -327 -27 0
-76 296 -77 0
-76 -77 78 0
-76 296 78 0
76 77 -78 0
76 -296 77 0
76 -296 -78 0
77 -328 28 0
77 328 -28 0
-77 328 28 0
-77 -328 -28 0
-78 297 -79 0
-78 -79 80 0
-78 297 80 0
78 79 -80 0
78 -297 79 0
78 -297 -80 0
79 -329 29 0
79 329 -29 0
-79 329 29 0
-79 -329 -29 0
-80 298 -81 0
-80 -81 82 0
-80 298 82 0
80 81 -82 0
80 -298 81 0
80 -298 -82 0
81 -330 30 0
81 330 -30 0
-81 330 30 0
-81 -330 -30 0
-82 299 -83 0
-82 -83 84 0
-82 299 84 0
82 83 -84 0
82 -299 83 0
82 -299 -84 0
83 -331 31 0
83 331 -31 0
-83 331 31 0
-83 -331 -31 0
-84 300 -85 0
-84 -85 86 0
-84 300 86 0
84 85 -86 0
84 -300 85 0
84 -300 -86 0
85 -332 32 0
85 332 -32 0
-85 332 32 0
-85 -332 -32 0
-86 301 -87 0
-86 -87 88 0
-86 301 88 0
86 87 -88 0
86 -301 87 0
86 -301 -88 0
87 -333 33 0
87 333 -33 0
-87 333 33 0
-87 -333 -33 0
-88 -89 91 0
-88 302 91 0
-88 302 -89 0
88 -302 -91 0
88 -302 89 0
88 89 -91 0
89 -334 90 0
89 334 -90 0
-89 334 90 0
-89 -334 -90 0
-90 335 336 0
90 -335 0
90 -336 0
91 -303 -335 -336 0
91 -304 335 336 0
91 -303 335 336 0
91 -303 -304 -335 0
-91 303 304 0
-91 303 -335 0
-91 335 -336 0
-91 304 -335 336 0
-92 93 94 0
-92 -93 -94 0
92 -93 94 0
92 93 -94 0
-93 306 6 0
93 -306 0
93 -6 0
-94 -273 -305 0
-94 273 305 0
94 273 -305 0
94 -273 305 0
95 96 -204 0
95 -96 204 0
-95 -96 -204 0
-95 96 204 0
-96 97 201 0
96 -97 0
96 -201 0
-97 98 198 0
97 -98 0
97 -198 0
-98 99 195 0
98 -99 0
98 -195 0
-99 100 192 0
99 -100 0
99 -192 0
-100 101 189 0
100 -101 0
100 -189 0
-101 102 186 0
101 -102 0
101 -186 0
-102 103 183 0
102 -103 0
102 -183 0
-103 104 180 0
103 -104 0
103 -180 0
-104 105 177 0
104 -105 0
104 -177 0
-105 106 174 0
105 -106 0
105 -174 0
-106 107 171 0
106 -107 0
106 -171 0
-107 108 168 0
107 -108 0
107 -168 0
-108 109 165 0
108 -109 0
108 -165 0
-109 110 162 0
109 -110 0
109 -162 0
-110 111 159 0
110 -111 0
110 -159 0
-111 112 156 0
111 -112 0
111 -156 0
-112 113 153 0
112 -113 0
112 -153 0
-113 114 148 149 150 0
-113 114 -148 -149 150 0
113 -150 0
113 -148 149 0
113 -114 0
113 148 -149 0
-114 115 143 144 145 0
-114 115 -143 -144 145 0
114 -145 0
114 -143 144 0
114 -115 0
114 143 -144 0
-115 116 138 139 140 0
-115 116 -138 -139 140 0
115 -140 0
115 -138 139 0
115 -116 0
115 138 -139 0
-116 117 133 134 135 0
-116 117 -133 -134 135 0
116 -135 0
116 -133 134 0
116 -117 0
116 133 -134 0
-117 118 -128 -129 130 0
-117 118 128 129 130 0
117 -130 0
117 -128 129 0
117 -118 0
117 128 -129 0
-118 119 120 123 125 0
-118 -119 -120 123 125 0
118 -123 0
118 -119 120 0
118 -125 0
118 119 -120 0
119 302 -334 0
119 -302 334 0
-119 -302 -334 0
-119 302 334 0
120 -121 -122 0
120 -304 -336 -122 0
-120 122 0
-120 304 121 0
-120 336 121 0
121 -303 -335 0
-121 303 0
-121 335 0
-122 303 335 0
122 -303 0
122 -335 0
123 -336 124 0
123 304 -124 0
123 -304 336 0
-123 -304 -336 -124 0
-123 304 336 124 0
124 303 -335 0
124 -303 335 0
-124 -303 -335 0
-124 303 335 0
125 126 -127 0
125 -126 127 0
-125 -126 -127 0
-125 126 127 0
126 301 -333 0
126 -301 333 0
-126 -301 -333 0
-126 301 333 0
127 -302 -334 0
127 -334 -120 0
127 -302 -120 0
-127 302 120 0
-127 334 120 0
-127 302 334 0
128 300 -332 0
128 -300 332 0
-128 -300 -332 0
-128 300 332 0
129 -301 -333 0
129 -333 -127 0
129 -301 -127 0
-129 301 127 0
-129 333 127 0
-129 301 333 0
130 131 -132 0
130 -131 132 0
-130 -131 -132 0
-130 131 132 0
131 299 -331 0
131 -299 331 0
-131 -299 -331 0
-131 299 331 0
132 -300 -332 0
132 -332 -129 0
132 -300 -129 0
-132 300 129 0
-132 332 129 0
-132 300 332 0
133 298 -330 0
133 -298 330 0
-133 -298 -330 0
-133 298 330 0
134 -299 -331 0
134 -331 -132 0
134 -299 -132 0
-134 299 132 0
-134 331 132 0
-134 299 331 0
-135 -136 -137 0
-135 136 137 0
135 136 -137 0
135 -136 137 0
136 297 -329 0
136 -297 329 0
-136 -297 -329 0
-136 297 329 0
137 -298 -330 0
137 -330 -134 0
137 -298 -134 0
-137 298 134 0
-137 330 134 0
-137 298 330 0
138 296 -328 0
138 -296 328 0
-138 -296 -328 0
-138 296 328 0
139 -297 -329 0
139 -329 -137 0
139 -297 -137 0
-139 297 137 0
-139 329 137 0
-139 297 329 0
-140 -141 -142 0
-140 141 142 0
140 141 -142 0
140 -141 142 0
141 295 -327 0
141 -295 327 0
-141 -295 -327 0
-141 295 327 0
142 -296 -328 0
142 -328 -139 0
142 -296 -139 0
-142 296 139 0
-142 328 139 0
-142 296 328 0
143 294 -326 0
143 -294 326 0
-143 -294 -326 0
-143 294 326 0
144 -295 -327 0
144 -327 -142 0
144 -295 -142 0
-144 295 142 0
-144 327 142 0
-144 295 327 0
-145 -146 -147 0
-145 146 147 0
145 146 -147 0
145 -146 147 0
146 293 -325 0
146 -293 325 0
-146 -293 -325 0
-146 293 325 0
147 -294 -326 0
147 -326 -144 0
147 -294 -144 0
-147 294 144 0
-147 326 144 0
-147 294 326 0
148 292 -324 0
148 -292 324 0
-148 -292 -324 0
-148 292 324 0
149 -293 -325 0
149 -325 -147 0
149 -293 -147 0
-149 293 147 0
-149 325 147 0
-149 293 325 0
-150 -151 -152 0
-150 151 152 0
150 151 -152 0
150 -151 152 0
151 291 -323 0
151 -291 323 0
-151 -291 -323 0
-151 291 323 0
152 -292 -324 0
152 -324 -149 0
152 -292 -149 0
-152 292 149 0
-152 324 149 0
-152 292 324 0
-153 -154 -155 0
-153 154 155 0
153 154 -155 0
153 -154 155 0
154 290 -322 0
154 -290 322 0
-154 -290 -322 0
-154 290 322 0
155 -291 -323 0
155 -323 -152 0
155 -291 -152 0
-155 291 152 0
-155 323 152 0
-155 291 323 0
-156 -157 -158 0
-156 157 158 0
156 157 -158 0
156 -157 158 0
157 289 -321 0
157 -289 321 0
-157 -289 -321 0
-157 289 321 0
158 -290 -322 0
158 -322 -155 0
158 -290 -155 0
-158 290 155 0
-158 322 155 0
-158 290 322 0
-159 -160 -161 0
-159 160 161 0
159 160 -161 0
159 -160 161 0
160 288 -320 0
160 -288 320 0
-160 -288 -320 0
-160 288 320 0
161 -289 -321 0
161 -321 -158 0
161 -289 -158 0
-161 289 158 0
-161 321 158 0
-161 289 321 0
-162 -163 -164 0
-162 163 164 0
162 163 -164 0
162 -163 164 0
163 287 -319 0
163 -287 319 0
-163 -287 -319 0
-163 287 319 0
164 -288 -320 0
164 -320 -161 0
164 -288 -161 0
-164 288 161 0
-164 320 161 0
-164 288 320 0
-165 -166 -167 0
-165 166 167 0
165 166 -167 0
165 -166 167 0
166 286 -318 0
166 -286 318 0
-166 -286 -318 0
-166 286 318 0
167 -287 -319 0
167 -319 -164 0
167 -287 -164 0
-167 287 164 0
-167 319 164 0
-167 287 319 0
-168 -169 -170 0
-168 169 170 0
168 169 -170 0
168 -169 170 0
169 285 -317 0
169 -285 317 0
-169 -285 -317 0
-169 285 317 0
170 -286 -318 0
170 -318 -167 0
170 -286 -167 0
-170 286 167 0
-170 318 167 0
-170 286 318 0
-171 -172 -173 0
-171 172 173 0
171 172 -173 0
171 -172 173 0
172 284 -316 0
172 -284 316 0
-172 -284 -316 0
-172 284 316 0
173 -285 -317 0
173 -317 -170 0
173 -285 -170 0
-173 285 170 0
-173 317 170 0
-173 285 317 0
-174 -175 -176 0
-174 175 176 0
174 175 -176 0
174 -175 176 0
175 283 -315 0
175 -283 315 0
-175 -283 -315 0
-175 283 315 0
176 -284 -316 0
176 -316 -173 0
176 -284 -173 0
-176 284 173 0
-176 316 173 0
-176 284 316 0
-177 -178 -179 0
-177 178 179 0
177 178 -179 0
177 -178 179 0
178 282 -314 0
178 -282 314 0
-178 -282 -314 0
-178 282 314 0
179 -283 -315 0
179 -315 -176 0
179 -283 -176 0
-179 283 176 0
-179 315 176 0
-179 283 315 0
-180 -181 -182 0
-180 181 182 0
180 181 -182 0
180 -181 182 0
181 281 -313 0
181 -281 313 0
-181 -281 -313 0
-181 281 313 0
182 -282 -314 0
182 -314 -179 0
182 -282 -179 0
-182 282 179 0
-182 314 179 0
-182 282 314 0
-183 -184 -185 0
-183 184 185 0
183 184 -185 0
183 -184 185 0
184 280 -312 0
184 -280 312 0
-184 -280 -312 0
-184 280 312 0
185 -281 -313 0
185 -313 -182 0
185 -281 -182 0
-185 281 182 0
-185 313 182 0
-185 281 313 0
-186 -187 -188 0
-186 187 188 0
186 187 -188 0
186 -187 188 0
187 279 -311 0
187 -279 311 0
-187 -279 -311 0
-187 279 311 0
188 -280 -312 0
188 -312 -185 0
188 -280 -185 0
-188 280 185 0
-188 312 185 0
-188 280 312 0
-189 -190 -191 0
-189 190 191 0
189 190 -191 0
189 -190 191 0
190 278 -310 0
190 -278 310 0
-190 -278 -310 0
-190 278 310 0
191 -279 -311 0
191 -311 -188 0
191 -279 -188 0
-191 279 188 0
-191 311 188 0
-191 279 311 0
-192 -193 -194 0
-192 193 194 0
192 193 -194 0
192 -193 194 0
193 277 -309 0
193 -277 309 0
-193 -277 -309 0
-193 277 309 0
194 -278 -310 0
194 -310 -191 0
194 -278 -191 0
-194 278 191 0
-194 310 191 0
-194 278 310 0
-195 -196 -197 0
-195 196 197 0
195 196 -197 0
195 -196 197 0
196 276 -308 0
196 -276 308 0
-196 -276 -308 0
-196 276 308 0
197 -277 -309 0
197 -309 -194 0
197 -277 -194 0
-197 277 194 0
-197 309 194 0
-197 277 309 0
-198 -199 -200 0
-198 199 200 0
198 199 -200 0
198 -199 200 0
199 275 -307 0
199 -275 307 0
-199 -275 -307 0
-199 275 307 0
200 -276 -308 0
200 -308 -197 0
200 -276 -197 0
-200 276 197 0
-200 308 197 0
-200 276 308 0
-201 -202 -203 0
-201 202 203 0
201 202 -203 0
201 -202 203 0
202 274 -306 0
202 -274 306 0
-202 -274 -306 0
-202 274 306 0
203 -275 -307 0
203 -307 -200 0
203 -275 -200 0
-203 275 200 0
-203 307 200 0
-203 275 307 0
204 94 -205 0
204 -94 205 0
-204 -94 -205 0
-204 94 205 0
205 -274 -306 0
205 -306 -203 0
205 -274 -203 0
-205 274 203 0
-205 306 203 0
-205 274 306 0
206 207 -208 0
206 -207 208 0
-206 -207 -208 0
-206 207 208 0
207 -97 201 0
207 97 -201 0
-207 97 201 0
-207 -97 -201 0
208 -34 209 0
208 34 -209 0
-208 34 209 0
-208 -34 -209 0
-209 -274 -5 0
-209 274 5 0
209 274 -5 0
209 -274 5 0
-210 211 212 214 218 0
-210 -211 -212 214 218 0
210 -214 0
210 211 -212 0
210 -218 0
210 -211 212 0
211 -98 198 0
211 98 -198 0
-211 98 198 0
-211 -98 -198 0
212 -36 213 0
212 36 -213 0
-212 36 213 0
-212 -36 -213 0
-213 -275 -35 0
-213 275 35 0
213 275 -35 0
213 -275 35 0
214 215 -216 0
214 -215 216 0
-214 -215 -216 0
-214 215 216 0
215 -99 195 0
215 99 -195 0
-215 99 195 0
-215 -99 -195 0
216 -38 217 0
216 38 -217 0
-216 38 217 0
-216 -38 -217 0
-217 -276 -37 0
-217 276 37 0
217 276 -37 0
217 -276 37 0
-218 219 220 222 226 0
-218 -219 -220 222 226 0
218 -222 0
218 219 -220 0
218 -226 0
218 -219 220 0
219 -100 192 0
219 100 -192 0
-219 100 192 0
-219 -100 -192 0
220 -40 221 0
220 40 -221 0
-220 40 221 0
-220 -40 -221 0
-221 -277 -39 0
-221 277 39 0
221 277 -39 0
221 -277 39 0
222 223 -224 0
222 -223 224 0
-222 -223 -224 0
-222 223 224 0
223 -101 189 0
223 101 -189 0
-223 101 189 0
-223 -101 -189 0
224 -42 225 0
224 42 -225 0
-224 42 225 0
-224 -42 -225 0
-225 -278 -41 0
-225 278 41 0
225 278 -41 0
225 -278 41 0
-226 227 231 232 234 0
-226 227 -231 -232 234 0
226 -234 0
226 -231 232 0
226 -227 0
226 231 -232 0
227 228 -229 0
227 -228 229 0
-227 -228 -229 0
-227 228 229 0
228 -102 186 0
228 102 -186 0
-228 102 186 0
-228 -102 -186 0
229 -44 230 0
229 44 -230 0
-229 44 230 0
-229 -44 -230 0
-230 -279 -43 0
-230 279 43 0
230 279 -43 0
230 -279 43 0
231 -103 183 0
231 103 -183 0
-231 103 183 0
-231 -103 -183 0
232 -46 233 0
232 46 -233 0
-232 46 233 0
-232 -46 -233 0
-233 -280 -45 0
-233 280 45 0
233 280 -45 0
233 -280 45 0
-234 235 239 240 242 0
-234 235 -239 -240 242 0
234 -242 0
234 -239 240 0
234 -235 0
234 239 -240 0
235 236 -237 0
235 -236 237 0
-235 -236 -237 0
-235 236 237 0
236 -104 180 0
236 104 -180 0
-236 104 180 0
-236 -104 -180 0
237 -48 238 0
237 48 -238 0
-237 48 238 0
-237 -48 -238 0
-238 -281 -47 0
-238 281 47 0
238 281 -47 0
238 -281 47 0
239 -105 177 0
239 105 -177 0
-239 105 177 0
-239 -105 -177 0
240 -50 241 0
240 50 -241 0
-240 50 241 0
-240 -50 -241 0
-241 -282 -49 0
-241 282 49 0
241 282 -49 0
241 -282 49 0
-242 243 247 248 250 0
-242 243 -247 -248 250 0
242 -250 0
242 -247 248 0
242 -243 0
242 247 -248 0
243 244 -245 0
243 -244 245 0
-243 -244 -245 0
-243 244 245 0
244 -106 174 0
244 106 -174 0
-244 106 174 0
-244 -106 -174 0
245 -52 246 0
245 52 -246 0
-245 52 246 0
-245 -52 -246 0
-246 -283 -51 0
-246 283 51 0
246 283 -51 0
246 -283 51 0
247 -107 171 0
247 107 -171 0
-247 107 171 0
-247 -107 -171 0
248 -54 249 0
248 54 -249 0
-248 54 249 0
-248 -54 -249 0
-249 -284 -53 0
-249 284 53 0
249 284 -53 0
249 -284 53 0
-250 251 252 254 258 0
-250 -251 -252 254 258 0
250 -254 0
250 251 -252 0
250 -258 0
250 -251 252 0
251 -108 168 0
251 108 -168 0
-251 108 168 0
-251 -108 -168 0
252 -56 253 0
252 56 -253 0
-252 56 253 0
-252 -56 -253 0
-253 -285 -55 0
-253 285 55 0
253 285 -55 0
253 -285 55 0
254 255 -256 0
254 -255 256 0
-254 -255 -256 0
-254 255 256 0
255 -109 165 0
255 109 -165 0
-255 109 165 0
-255 -109 -165 0
256 -58 257 0
256 58 -257 0
-256 58 257 0
-256 -58 -257 0
-257 -286 -57 0
-257 286 57 0
257 286 -57 0
257 -286 57 0
-258 259 260 262 266 0
-258 -259 -260 262 266 0
258 -262 0
258 259 -260 0
258 -266 0
258 -259 260 0
259 -110 162 0
259 110 -162 0
-259 110 162 0
-259 -110 -162 0
260 -60 261 0
260 60 -261 0
-260 60 261 0
-260 -60 -261 0
-261 -287 -59 0
-261 287 59 0
261 287 -59 0
261 -287 59 0
262 263 -264 0
-262 -263 0
-262 264 0
263 -111 159 0
263 111 -159 0
-263 111 159 0
-263 -111 -159 0
264 -62 265 0
264 62 -265 0
-264 62 265 0
-264 -62 -265 0
-265 -288 -61 0
-265 288 61 0
265 288 -61 0
265 -288 61 0
-266 267 268 -270 -271 0
-266 -267 -268 -270 -271 0
-266 267 268 270 271 0
-266 -267 -268 270 271 0
266 267 -268 0
266 -267 268 0
266 270 -271 0
266 -270 271 0
267 -112 156 0
267 112 -156 0
-267 112 156 0
-267 -112 -156 0
268 -64 269 0
268 64 -269 0
-268 64 269 0
-268 -64 -269 0
-269 -289 -63 0
-269 289 63 0
269 289 -63 0
269 -289 63 0
270 -113 153 0
270 113 -153 0
-270 113 153 0
-270 -113 -153 0
271 -66 272 0
271 66 -272 0
-271 66 272 0
-271 -66 -272 0
-272 -290 -65 0
-272 290 65 0
272 290 -65 0
272 -290 65 0
-337 0
2 0

